p cnf 2436 2381
287 146 0
-287 -146 0
289 148 0
-289 -148 0
333 150 0
-333 -150 0
349 152 0
-349 -152 0
351 154 0
-351 -154 0
365 156 0
-365 -156 0
373 158 0
-373 -158 0
367 160 0
-367 -160 0
363 162 0
-363 -162 0
375 164 0
-375 -164 0
291 166 0
-291 -166 0
299 168 0
-299 -168 0
345 170 0
-345 -170 0
283 172 0
-283 -172 0
371 174 0
-371 -174 0
341 176 0
-341 -176 0
325 240 0
325 118 0
-325 -240 -118 0
328 249 0
328 120 0
-328 -249 -120 0
356 269 0
-356 -269 0
274 269 0
-274 -269 0
-104 306 0
104 -306 0
-104 271 0
104 -271 0
311 2289 0
-311 -2289 0
315 2311 0
-315 -2311 0
319 2293 0
-319 -2293 0
323 2297 0
-323 -2297 0
2228 144 0
-2228 -144 0
2231 144 0
-2231 -144 0
433 118 0
-433 -118 0
438 120 0
-438 -120 0
-128 2312 0
128 -2312 0
1631 128 0
-1631 -128 0
-128 439 0
128 -439 0
275 128 0
-275 -128 0
-2269 447 0
2269 -447 0
225 2269 0
-225 -2269 0
1779 2269 0
-1779 -2269 0
-144 329 0
144 -329 0
357 144 0
-357 -144 0
-144 440 0
144 -440 0
-144 226 0
144 -226 0
2267 144 0
-2267 -144 0
-146 2077 0
146 -2077 0
-148 2080 0
148 -2080 0
-150 2083 0
150 -2083 0
-152 2086 0
152 -2086 0
-154 2191 0
154 -2191 0
-156 2194 0
156 -2194 0
-158 2197 0
158 -2197 0
-160 2200 0
160 -2200 0
-162 2203 0
162 -2203 0
-164 2114 0
164 -2114 0
-166 2209 0
166 -2209 0
-168 2212 0
168 -2212 0
-170 2215 0
170 -2215 0
-172 2218 0
172 -2218 0
-174 2137 0
174 -2137 0
-176 2140 0
176 -2140 0
2034 2077 0
-2034 -2077 0
2039 2080 0
-2039 -2080 0
2044 2083 0
-2044 -2083 0
2049 2086 0
-2049 -2086 0
2090 2191 0
-2090 -2191 0
2095 2194 0
-2095 -2194 0
2100 2197 0
-2100 -2197 0
2105 2200 0
-2105 -2200 0
2110 2203 0
-2110 -2203 0
2054 2114 0
-2054 -2114 0
2118 2209 0
-2118 -2209 0
2123 2212 0
-2123 -2212 0
2128 2215 0
-2128 -2215 0
2133 2218 0
-2133 -2218 0
2059 2137 0
-2059 -2137 0
2064 2140 0
-2064 -2140 0
2404 225 0
2404 226 0
-2404 -225 -226 0
2406 225 0
2406 226 0
-2406 -225 -226 0
2436 225 0
2436 226 0
-2436 -225 -226 0
2409 225 0
2409 226 0
-2409 -225 -226 0
2413 225 0
2413 226 0
-2413 -225 -226 0
2415 225 0
2415 226 0
-2415 -225 -226 0
-287 455 0
287 -455 0
-289 539 0
289 -539 0
-351 463 0
351 -463 0
-365 543 0
365 -543 0
-375 471 0
375 -471 0
-371 547 0
371 -547 0
-477 240 0
-477 357 0
477 -240 -357 0
-363 551 0
363 -551 0
-291 483 0
291 -483 0
-299 555 0
299 -555 0
-491 249 0
-491 357 0
491 -249 -357 0
-283 559 0
283 -559 0
-499 411 0
-499 356 0
-499 357 0
499 -411 -356 -357 0
-341 517 0
341 -517 0
-283 563 0
283 -563 0
1486 440 0
1486 433 0
-1486 -440 -433 0
1488 440 0
1488 438 0
-1488 -440 -438 0
449 271 0
449 269 0
-449 -271 -269 0
415 271 0
415 275 0
-415 -271 -275 0
412 274 0
412 275 0
-412 -274 -275 0
-349 568 0
349 -568 0
-367 565 0
367 -565 0
-363 574 0
363 -574 0
-283 571 0
283 -571 0
-287 798 0
287 -798 0
-287 763 0
287 -763 0
-289 895 0
289 -895 0
-291 898 0
291 -898 0
-333 901 0
333 -901 0
-1181 414 0
-1181 306 0
-1181 357 0
1181 -414 -306 -357 0
-299 904 0
299 -904 0
-349 886 0
349 -886 0
-345 580 0
345 -580 0
-577 408 0
-577 306 0
-577 357 0
577 -408 -306 -357 0
-311 1706 0
311 -1706 0
-311 1703 0
311 -1703 0
-315 1694 0
315 -1694 0
-315 1691 0
315 -1691 0
-319 1534 0
319 -1534 0
-319 1531 0
319 -1531 0
-323 1469 0
323 -1469 0
-323 1466 0
323 -1466 0
-2394 325 0
-2394 329 0
2394 -325 -329 0
-2397 328 0
-2397 329 0
2397 -328 -329 0
-333 766 0
333 -766 0
-333 769 0
333 -769 0
-373 772 0
373 -772 0
-373 775 0
373 -775 0
-341 778 0
341 -778 0
-341 781 0
341 -781 0
-345 784 0
345 -784 0
-345 787 0
345 -787 0
-349 790 0
349 -790 0
-349 793 0
349 -793 0
-351 586 0
351 -586 0
-367 583 0
367 -583 0
-592 405 0
-592 356 0
-592 357 0
592 -405 -356 -357 0
-371 589 0
371 -589 0
-363 801 0
363 -801 0
-363 804 0
363 -804 0
-365 598 0
365 -598 0
-367 595 0
367 -595 0
-375 604 0
375 -604 0
-371 601 0
371 -601 0
-373 610 0
373 -610 0
-375 607 0
375 -607 0
2367 2394 0
-2367 -2394 0
2372 2397 0
-2372 -2397 0
566 568 0
-566 -568 0
569 565 0
-569 -565 0
572 574 0
-572 -574 0
575 571 0
-575 -571 0
640 763 0
-640 -763 0
1149 1181 0
-1149 -1181 0
813 886 0
-813 -886 0
578 580 0
-578 -580 0
581 577 0
-581 -577 0
-2285 411 0
-2285 412 0
2285 -411 -412 0
-2301 414 0
-2301 415 0
2301 -414 -415 0
1751 405 0
1751 412 0
-1751 -405 -412 0
1754 408 0
1754 415 0
-1754 -408 -415 0
755 411 0
755 412 0
-755 -411 -412 0
759 414 0
759 415 0
-759 -414 -415 0
1682 1703 0
-1682 -1703 0
1687 1706 0
-1687 -1706 0
1662 1691 0
-1662 -1691 0
1667 1694 0
-1667 -1694 0
1492 1531 0
-1492 -1531 0
1497 1534 0
-1497 -1534 0
1438 1466 0
-1438 -1466 0
1443 1469 0
-1443 -1469 0
655 433 0
655 439 0
655 440 0
655 449 0
-655 -433 -439 -440 -449 0
658 438 0
658 439 0
658 440 0
658 449 0
-658 -438 -439 -440 -449 0
659 447 0
659 2267 0
659 449 0
-659 -447 -2267 -449 0
-1977 447 0
-1977 2267 0
-1977 449 0
1977 -447 -2267 -449 0
-455 989 0
455 -989 0
664 766 0
-664 -766 0
-455 986 0
455 -986 0
669 769 0
-669 -769 0
-463 992 0
463 -992 0
674 772 0
-674 -772 0
-463 999 0
463 -999 0
679 775 0
-679 -775 0
-471 1005 0
471 -1005 0
684 778 0
-684 -778 0
-471 1002 0
471 -1002 0
689 781 0
-689 -781 0
-477 1348 0
477 -1348 0
-477 1337 0
477 -1337 0
-483 1019 0
483 -1019 0
700 784 0
-700 -784 0
-483 1008 0
483 -1008 0
707 787 0
-707 -787 0
-491 1022 0
491 -1022 0
712 790 0
-712 -790 0
-491 1011 0
491 -1011 0
719 793 0
-719 -793 0
-499 723 0
499 -723 0
724 798 0
-724 -798 0
-499 639 0
499 -639 0
584 586 0
-584 -586 0
587 583 0
-587 -583 0
861 895 0
-861 -895 0
590 592 0
-590 -592 0
593 589 0
-593 -589 0
866 898 0
-866 -898 0
-517 1025 0
517 -1025 0
735 801 0
-735 -801 0
-517 1014 0
517 -1014 0
742 804 0
-742 -804 0
596 598 0
-596 -598 0
599 595 0
-599 -595 0
877 901 0
-877 -901 0
602 604 0
-602 -604 0
605 601 0
-605 -601 0
882 904 0
-882 -904 0
608 610 0
-608 -610 0
611 607 0
-611 -607 0
-539 663 0
539 -663 0
-539 668 0
539 -668 0
-543 673 0
543 -673 0
-543 678 0
543 -678 0
-547 683 0
547 -683 0
-547 688 0
547 -688 0
-551 1196 0
551 -1196 0
-551 1199 0
551 -1199 0
-555 699 0
555 -699 0
-555 706 0
555 -706 0
-559 711 0
559 -711 0
-559 718 0
559 -718 0
-563 734 0
563 -734 0
-563 741 0
563 -741 0
617 565 0
617 566 0
-617 -565 -566 0
618 568 0
618 569 0
-618 -568 -569 0
634 571 0
634 572 0
-634 -571 -572 0
635 574 0
635 575 0
-635 -574 -575 0
644 577 0
644 578 0
-644 -577 -578 0
645 580 0
645 581 0
-645 -580 -581 0
726 583 0
726 584 0
-726 -583 -584 0
727 586 0
727 587 0
-727 -586 -587 0
729 589 0
729 590 0
-729 -589 -590 0
730 592 0
730 593 0
-730 -592 -593 0
744 595 0
744 596 0
-744 -595 -596 0
745 598 0
745 599 0
-745 -598 -599 0
747 601 0
747 602 0
-747 -601 -602 0
748 604 0
748 605 0
-748 -604 -605 0
750 607 0
750 608 0
-750 -607 -608 0
751 610 0
751 611 0
-751 -610 -611 0
910 986 0
-910 -986 0
915 989 0
-915 -989 0
761 617 0
761 618 0
-761 -617 -618 0
920 992 0
-920 -992 0
925 999 0
-925 -999 0
930 1002 0
-930 -1002 0
935 1005 0
-935 -1005 0
1295 1337 0
-1295 -1337 0
940 1008 0
-940 -1008 0
945 1011 0
-945 -1011 0
796 634 0
796 635 0
-796 -634 -635 0
764 639 0
-764 -639 0
810 639 0
810 640 0
-810 -639 -640 0
952 1014 0
-952 -1014 0
807 644 0
807 645 0
-807 -644 -645 0
1781 1751 0
-1781 -1751 0
-1751 1784 0
1751 -1784 0
1787 1754 0
-1787 -1754 0
-1754 1790 0
1754 -1790 0
2001 655 0
2001 659 0
-2001 -655 -659 0
2031 658 0
2031 659 0
-2031 -658 -659 0
767 663 0
-767 -663 0
826 663 0
826 664 0
-826 -663 -664 0
770 668 0
-770 -668 0
829 668 0
829 669 0
-829 -668 -669 0
773 673 0
-773 -673 0
832 673 0
832 674 0
-832 -673 -674 0
776 678 0
-776 -678 0
835 678 0
835 679 0
-835 -678 -679 0
779 683 0
-779 -683 0
838 683 0
838 684 0
-838 -683 -684 0
782 688 0
-782 -688 0
841 688 0
841 689 0
-841 -688 -689 0
1158 1196 0
-1158 -1196 0
1311 1348 0
-1311 -1348 0
1163 1199 0
-1163 -1199 0
785 699 0
-785 -699 0
844 699 0
844 700 0
-844 -699 -700 0
962 1019 0
-962 -1019 0
788 706 0
-788 -706 0
847 706 0
847 707 0
-847 -706 -707 0
791 711 0
-791 -711 0
850 711 0
850 712 0
-850 -711 -712 0
967 1022 0
-967 -1022 0
794 718 0
-794 -718 0
853 718 0
853 719 0
-853 -718 -719 0
799 723 0
-799 -723 0
856 723 0
856 724 0
-856 -723 -724 0
860 726 0
860 727 0
-860 -726 -727 0
865 729 0
865 730 0
-865 -729 -730 0
802 734 0
-802 -734 0
869 734 0
869 735 0
-869 -734 -735 0
975 1025 0
-975 -1025 0
805 741 0
-805 -741 0
872 741 0
872 742 0
-872 -741 -742 0
876 744 0
876 745 0
-876 -744 -745 0
881 747 0
881 748 0
-881 -747 -748 0
815 750 0
815 751 0
-815 -750 -751 0
-755 1700 0
755 -1700 0
-755 1697 0
755 -1697 0
-759 1567 0
759 -1567 0
-759 1564 0
759 -1564 0
893 761 0
-893 -761 0
809 763 0
809 764 0
-809 -763 -764 0
825 766 0
825 767 0
-825 -766 -767 0
828 769 0
828 770 0
-828 -769 -770 0
831 772 0
831 773 0
-831 -772 -773 0
834 775 0
834 776 0
-834 -775 -776 0
837 778 0
837 779 0
-837 -778 -779 0
840 781 0
840 782 0
-840 -781 -782 0
843 784 0
843 785 0
-843 -784 -785 0
846 787 0
846 788 0
-846 -787 -788 0
849 790 0
849 791 0
-849 -790 -791 0
852 793 0
852 794 0
-852 -793 -794 0
1366 796 0
-1366 -796 0
855 798 0
855 799 0
-855 -798 -799 0
868 801 0
868 802 0
-868 -801 -802 0
871 804 0
871 805 0
-871 -804 -805 0
1302 807 0
-1302 -807 0
907 809 0
907 810 0
-907 -809 -810 0
956 815 0
956 813 0
-956 -815 -813 0
887 815 0
-887 -815 0
1672 1697 0
-1672 -1697 0
1677 1700 0
-1677 -1700 0
1522 1564 0
-1522 -1564 0
1527 1567 0
-1527 -1567 0
917 825 0
917 826 0
-917 -825 -826 0
912 828 0
912 829 0
-912 -828 -829 0
922 831 0
922 832 0
-922 -831 -832 0
927 834 0
927 835 0
-927 -834 -835 0
937 837 0
937 838 0
-937 -837 -838 0
932 840 0
932 841 0
-932 -840 -841 0
961 843 0
961 844 0
-961 -843 -844 0
942 846 0
942 847 0
-942 -846 -847 0
966 849 0
966 850 0
-966 -849 -850 0
947 852 0
947 853 0
-947 -852 -853 0
2429 855 0
2429 856 0
-2429 -855 -856 0
896 860 0
-896 -860 0
969 860 0
969 861 0
-969 -860 -861 0
899 865 0
-899 -865 0
977 865 0
977 866 0
-977 -865 -866 0
974 868 0
974 869 0
-974 -868 -869 0
954 871 0
954 872 0
-954 -871 -872 0
902 876 0
-902 -876 0
983 876 0
983 877 0
-983 -876 -877 0
905 881 0
-905 -881 0
980 881 0
980 882 0
-980 -881 -882 0
1341 1366 0
-1341 -1366 0
957 886 0
957 887 0
-957 -886 -887 0
1263 1302 0
-1263 -1302 0
-893 1360 0
893 -1360 0
-893 1357 0
893 -1357 0
970 895 0
970 896 0
-970 -895 -896 0
978 898 0
978 899 0
-978 -898 -899 0
984 901 0
984 902 0
-984 -901 -902 0
981 904 0
981 905 0
-981 -904 -905 0
1561 907 0
-1561 -907 0
1030 912 0
1030 910 0
-1030 -912 -910 0
987 912 0
-987 -912 0
1033 917 0
1033 915 0
-1033 -917 -915 0
990 917 0
-990 -917 0
1036 922 0
1036 920 0
-1036 -922 -920 0
993 922 0
-993 -922 0
1039 927 0
1039 925 0
-1039 -927 -925 0
1000 927 0
-1000 -927 0
1042 932 0
1042 930 0
-1042 -932 -930 0
1003 932 0
-1003 -932 0
1045 937 0
1045 935 0
-1045 -937 -935 0
1006 937 0
-1006 -937 0
1048 942 0
1048 940 0
-1048 -942 -940 0
1009 942 0
-1009 -942 0
1051 947 0
1051 945 0
-1051 -947 -945 0
1012 947 0
-1012 -947 0
2425 2429 0
-2425 -2429 0
1056 954 0
1056 952 0
-1056 -954 -952 0
1015 954 0
-1015 -954 0
1028 956 0
1028 957 0
-1028 -956 -957 0
1020 961 0
-1020 -961 0
1068 961 0
1068 962 0
-1068 -961 -962 0
1023 966 0
-1023 -966 0
1065 966 0
1065 967 0
-1065 -966 -967 0
1259 969 0
1259 970 0
-1259 -969 -970 0
1026 974 0
-1026 -974 0
1071 974 0
1071 975 0
-1071 -974 -975 0
1126 977 0
1126 978 0
-1126 -977 -978 0
1085 980 0
1085 981 0
-1085 -980 -981 0
1082 983 0
1082 984 0
-1082 -983 -984 0
1031 986 0
1031 987 0
-1031 -986 -987 0
1034 989 0
1034 990 0
-1034 -989 -990 0
1037 992 0
1037 993 0
-1037 -992 -993 0
1328 1357 0
-1328 -1357 0
1333 1360 0
-1333 -1360 0
1040 999 0
1040 1000 0
-1040 -999 -1000 0
1043 1002 0
1043 1003 0
-1043 -1002 -1003 0
1046 1005 0
1046 1006 0
-1046 -1005 -1006 0
1049 1008 0
1049 1009 0
-1049 -1008 -1009 0
1052 1011 0
1052 1012 0
-1052 -1011 -1012 0
1057 1014 0
1057 1015 0
-1057 -1014 -1015 0
1519 1561 0
-1519 -1561 0
1069 1019 0
1069 1020 0
-1069 -1019 -1020 0
1066 1022 0
1066 1023 0
-1066 -1022 -1023 0
1072 1025 0
1072 1026 0
-1072 -1025 -1026 0
1174 1028 0
-1174 -1028 0
1074 1030 0
1074 1031 0
-1074 -1030 -1031 0
1118 1033 0
1118 1034 0
-1118 -1033 -1034 0
1110 1036 0
1110 1037 0
-1110 -1036 -1037 0
1080 1039 0
1080 1040 0
-1080 -1039 -1040 0
1076 1042 0
1076 1043 0
-1076 -1042 -1043 0
1114 1045 0
1114 1046 0
-1114 -1045 -1046 0
1078 1048 0
1078 1049 0
-1078 -1048 -1049 0
1090 1051 0
1090 1052 0
-1090 -1051 -1052 0
1225 1259 0
-1225 -1259 0
1092 1056 0
1092 1057 0
-1092 -1056 -1057 0
1101 1126 0
-1101 -1126 0
1083 1085 0
-1083 -1085 0
1086 1082 0
-1086 -1082 0
1589 1065 0
1589 1066 0
-1589 -1065 -1066 0
1244 1068 0
1244 1069 0
-1244 -1068 -1069 0
1103 1071 0
1103 1072 0
-1103 -1071 -1072 0
1140 1074 0
-1140 -1074 0
1142 1076 0
-1142 -1076 0
1146 1078 0
-1146 -1078 0
1136 1080 0
-1136 -1080 0
1105 1082 0
1105 1083 0
-1105 -1082 -1083 0
1106 1085 0
1106 1086 0
-1106 -1085 -1086 0
1130 1174 0
-1130 -1174 0
1583 1090 0
-1583 -1090 0
1132 1092 0
-1132 -1092 0
-1114 1179 0
1114 -1179 0
1559 1589 0
-1559 -1589 0
1207 1244 0
-1207 -1244 0
1171 1103 0
1171 1101 0
-1171 -1103 -1101 0
1127 1103 0
-1127 -1103 0
1151 1105 0
1151 1106 0
-1151 -1105 -1106 0
-1110 1232 0
1110 -1232 0
-1110 1235 0
1110 -1235 0
-1114 1160 0
1114 -1160 0
-1114 1165 0
1114 -1165 0
-1118 1313 0
1118 -1313 0
-1118 1316 0
1118 -1316 0
-1146 1204 0
1146 -1204 0
-1142 1222 0
1142 -1222 0
1547 1583 0
-1547 -1583 0
1172 1126 0
1172 1127 0
-1172 -1126 -1127 0
1211 1132 0
1211 1130 0
-1211 -1132 -1130 0
1175 1132 0
-1175 -1132 0
-1136 1418 0
1136 -1418 0
-1136 1407 0
1136 -1407 0
-1140 1189 0
1140 -1189 0
-1140 1194 0
1140 -1194 0
-1142 1209 0
1142 -1209 0
-1146 1288 0
1146 -1288 0
-1146 1291 0
1146 -1291 0
1229 1151 0
1229 1149 0
-1229 -1151 -1149 0
1182 1151 0
-1182 -1151 0
1187 1232 0
-1187 -1232 0
1192 1235 0
-1192 -1235 0
1238 1160 0
1238 1158 0
-1238 -1160 -1158 0
1197 1160 0
-1197 -1160 0
1241 1165 0
1241 1163 0
-1241 -1165 -1163 0
1200 1165 0
-1200 -1165 0
1276 1313 0
-1276 -1313 0
1283 1316 0
-1283 -1316 0
1227 1171 0
1227 1172 0
-1227 -1171 -1172 0
1212 1174 0
1212 1175 0
-1212 -1174 -1175 0
-1179 1249 0
1179 -1249 0
-1179 1254 0
1179 -1254 0
1230 1181 0
1230 1182 0
-1230 -1181 -1182 0
1370 1407 0
-1370 -1407 0
1267 1189 0
1267 1187 0
-1267 -1189 -1187 0
1233 1189 0
-1233 -1189 0
1270 1194 0
1270 1192 0
-1270 -1194 -1192 0
1236 1194 0
-1236 -1194 0
1239 1196 0
1239 1197 0
-1239 -1196 -1197 0
1242 1199 0
1242 1200 0
-1242 -1199 -1200 0
-1204 1449 0
1204 -1449 0
-1204 1427 0
1204 -1427 0
1285 1209 0
1285 1207 0
-1285 -1209 -1207 0
1245 1209 0
-1245 -1209 0
1265 1211 0
1265 1212 0
-1265 -1211 -1212 0
1250 1288 0
-1250 -1288 0
1382 1418 0
-1382 -1418 0
1255 1291 0
-1255 -1291 0
-1222 1275 0
1222 -1275 0
-1222 1282 0
1222 -1282 0
1299 1227 0
1299 1225 0
-1299 -1227 -1225 0
1260 1227 0
-1260 -1227 0
1325 1229 0
1325 1230 0
-1325 -1229 -1230 0
1268 1232 0
1268 1233 0
-1268 -1232 -1233 0
1271 1235 0
1271 1236 0
-1271 -1235 -1236 0
1310 1238 0
1310 1239 0
-1310 -1238 -1239 0
1297 1241 0
1297 1242 0
-1297 -1241 -1242 0
1286 1244 0
1286 1245 0
-1286 -1244 -1245 0
1289 1249 0
-1289 -1249 0
1320 1249 0
1320 1250 0
-1320 -1249 -1250 0
1292 1254 0
-1292 -1254 0
1323 1254 0
1323 1255 0
-1323 -1254 -1255 0
1400 1427 0
-1400 -1427 0
1300 1259 0
1300 1260 0
-1300 -1259 -1260 0
1345 1265 0
1345 1263 0
-1345 -1265 -1263 0
1303 1265 0
-1303 -1265 0
1335 1267 0
1335 1268 0
-1335 -1267 -1268 0
1330 1270 0
1330 1271 0
-1330 -1270 -1271 0
1314 1275 0
-1314 -1275 0
1352 1275 0
1352 1276 0
-1352 -1275 -1276 0
1416 1449 0
-1416 -1449 0
1317 1282 0
-1317 -1282 0
1355 1282 0
1355 1283 0
-1355 -1282 -1283 0
1343 1285 0
1343 1286 0
-1343 -1285 -1286 0
1319 1288 0
1319 1289 0
-1319 -1288 -1289 0
1322 1291 0
1322 1292 0
-1322 -1291 -1292 0
1363 1297 0
1363 1295 0
-1363 -1297 -1295 0
1338 1297 0
-1338 -1297 0
1384 1299 0
1384 1300 0
-1384 -1299 -1300 0
1346 1302 0
1346 1303 0
-1346 -1302 -1303 0
1388 1325 0
1388 1631 0
-1388 -1325 -1631 0
1349 1310 0
-1349 -1310 0
1390 1310 0
1390 1311 0
-1390 -1310 -1311 0
1351 1313 0
1351 1314 0
-1351 -1313 -1314 0
1354 1316 0
1354 1317 0
-1354 -1316 -1317 0
1381 1319 0
1381 1320 0
-1381 -1319 -1320 0
1372 1322 0
1372 1323 0
-1372 -1322 -1323 0
-1325 2360 0
1325 -2360 0
1393 1330 0
1393 1328 0
-1393 -1330 -1328 0
1358 1330 0
-1358 -1330 0
1396 1335 0
1396 1333 0
-1396 -1335 -1333 0
1361 1335 0
-1361 -1335 0
1364 1337 0
1364 1338 0
-1364 -1337 -1338 0
1404 1343 0
1404 1341 0
-1404 -1343 -1341 0
1367 1343 0
-1367 -1343 0
1423 1345 0
1423 1346 0
-1423 -1345 -1346 0
1391 1348 0
1391 1349 0
-1391 -1348 -1349 0
1415 1351 0
1415 1352 0
-1415 -1351 -1352 0
1402 1354 0
1402 1355 0
-1402 -1354 -1355 0
1394 1357 0
1394 1358 0
-1394 -1357 -1358 0
1397 1360 0
1397 1361 0
-1397 -1360 -1361 0
1421 1363 0
1421 1364 0
-1421 -1363 -1364 0
1405 1366 0
1405 1367 0
-1405 -1366 -1367 0
1432 1372 0
1432 1370 0
-1432 -1372 -1370 0
1408 1372 0
-1408 -1372 0
2331 2360 0
-2331 -2360 0
1454 1384 0
1454 1631 0
-1454 -1384 -1631 0
1419 1381 0
-1419 -1381 0
1456 1381 0
1456 1382 0
-1456 -1381 -1382 0
-1384 2357 0
1384 -2357 0
-1388 1445 0
1388 -1445 0
-1388 1440 0
1388 -1440 0
1580 1390 0
1580 1391 0
-1580 -1390 -1391 0
1425 1393 0
1425 1394 0
-1425 -1393 -1394 0
1480 1396 0
1480 1397 0
-1480 -1396 -1397 0
1459 1402 0
1459 1400 0
-1459 -1402 -1400 0
1428 1402 0
-1428 -1402 0
1430 1404 0
1430 1405 0
-1430 -1404 -1405 0
1433 1407 0
1433 1408 0
-1433 -1407 -1408 0
1478 1423 0
1478 1631 0
-1478 -1423 -1631 0
1450 1415 0
-1450 -1415 0
1482 1415 0
1482 1416 0
-1482 -1415 -1416 0
1457 1418 0
1457 1419 0
-1457 -1418 -1419 0
1553 1421 0
-1553 -1421 0
-1423 2363 0
1423 -2363 0
1485 1425 0
-1485 -1425 0
1460 1427 0
1460 1428 0
-1460 -1427 -1428 0
1489 1430 0
-1489 -1430 0
1474 1432 0
1474 1433 0
-1474 -1432 -1433 0
2328 2357 0
-2328 -2357 0
1501 1440 0
1501 1438 0
-1501 -1440 -1438 0
1467 1440 0
-1467 -1440 0
1504 1445 0
1504 1443 0
-1504 -1445 -1443 0
1470 1445 0
-1470 -1445 0
1542 1580 0
-1542 -1580 0
1483 1449 0
1483 1450 0
-1483 -1449 -1450 0
-1454 1499 0
1454 -1499 0
-1454 1494 0
1454 -1494 0
2376 1456 0
2376 1457 0
-2376 -1456 -1457 0
1509 1459 0
1509 1460 0
-1509 -1459 -1460 0
1514 1553 0
-1514 -1553 0
2334 2363 0
-2334 -2363 0
1502 1466 0
1502 1467 0
-1502 -1466 -1467 0
1505 1469 0
1505 1470 0
-1505 -1469 -1470 0
-1480 1513 0
1480 -1513 0
1518 1474 0
-1518 -1474 0
-1478 1529 0
1478 -1529 0
-1478 1524 0
1478 -1524 0
-1480 1541 0
1480 -1541 0
1546 1482 0
1546 1483 0
-1546 -1482 -1483 0
-2305 1485 0
-2305 1486 0
2305 -1485 -1486 0
-2308 1488 0
-2308 1489 0
2308 -1488 -1489 0
1570 1494 0
1570 1492 0
-1570 -1494 -1492 0
1532 1494 0
-1532 -1494 0
1573 1499 0
1573 1497 0
-1573 -1499 -1497 0
1535 1499 0
-1535 -1499 0
1537 1501 0
1537 1502 0
-1537 -1501 -1502 0
1578 1504 0
1578 1505 0
-1578 -1504 -1505 0
2349 2376 0
-2349 -2376 0
1558 1509 0
-1558 -1509 0
1554 1513 0
-1554 -1513 0
1587 1513 0
1587 1514 0
-1587 -1513 -1514 0
1562 1518 0
-1562 -1518 0
1593 1518 0
1593 1519 0
-1593 -1518 -1519 0
1595 1524 0
1595 1522 0
-1595 -1524 -1522 0
1565 1524 0
-1565 -1524 0
1598 1529 0
1598 1527 0
-1598 -1529 -1527 0
1568 1529 0
-1568 -1529 0
1571 1531 0
1571 1532 0
-1571 -1531 -1532 0
1574 1534 0
1574 1535 0
-1574 -1534 -1535 0
1748 1537 0
-1748 -1537 0
1581 1541 0
-1581 -1541 0
1604 1541 0
1604 1542 0
-1604 -1541 -1542 0
1584 1546 0
-1584 -1546 0
1607 1546 0
1607 1547 0
-1607 -1546 -1547 0
2273 2305 0
-2273 -2305 0
2278 2308 0
-2278 -2308 0
1586 1553 0
1586 1554 0
-1586 -1553 -1554 0
1590 1558 0
-1590 -1558 0
1612 1558 0
1612 1559 0
-1612 -1558 -1559 0
1592 1561 0
1592 1562 0
-1592 -1561 -1562 0
1596 1564 0
1596 1565 0
-1596 -1564 -1565 0
1599 1567 0
1599 1568 0
-1599 -1567 -1568 0
1601 1570 0
1601 1571 0
-1601 -1570 -1571 0
1621 1573 0
1621 1574 0
-1621 -1573 -1574 0
1643 1578 0
-1643 -1578 0
-1578 1646 0
1578 -1646 0
1603 1580 0
1603 1581 0
-1603 -1580 -1581 0
1606 1583 0
1606 1584 0
-1606 -1583 -1584 0
1609 1586 0
1609 1587 0
-1609 -1586 -1587 0
1611 1589 0
1611 1590 0
-1611 -1589 -1590 0
1614 1592 0
1614 1593 0
-1614 -1592 -1593 0
1617 1595 0
1617 1596 0
-1617 -1595 -1596 0
1635 1598 0
1635 1599 0
-1635 -1598 -1599 0
1749 1601 0
-1749 -1601 0
2351 1603 0
2351 1604 0
-2351 -1603 -1604 0
2354 1606 0
2354 1607 0
-2354 -1606 -1607 0
1627 1609 0
-1627 -1609 0
1630 1611 0
1630 1612 0
-1630 -1611 -1612 0
1651 1614 0
1651 1631 0
-1651 -1614 -1631 0
1747 1617 0
-1747 -1617 0
1641 1621 0
-1641 -1621 0
-1621 1647 0
1621 -1647 0
2322 2351 0
-2322 -2351 0
2325 2354 0
-2325 -2354 0
1655 1627 0
1655 1631 0
-1655 -1627 -1631 0
1659 1630 0
1659 1631 0
-1659 -1630 -1631 0
1770 1635 0
-1770 -1635 0
-1635 1773 0
1635 -1773 0
-2024 1643 0
-2024 1641 0
2024 -1643 -1641 0
-2018 1646 0
-2018 1641 0
2018 -1646 -1641 0
-2030 1643 0
-2030 1647 0
2030 -1643 -1647 0
-2000 1646 0
-2000 1647 0
2000 -1646 -1647 0
-1651 1669 0
1651 -1669 0
-1651 1664 0
1651 -1664 0
-1655 1679 0
1655 -1679 0
-1655 1674 0
1655 -1674 0
-1659 1689 0
1659 -1689 0
-1659 1684 0
1659 -1684 0
1709 1664 0
1709 1662 0
-1709 -1664 -1662 0
1692 1664 0
-1692 -1664 0
1712 1669 0
1712 1667 0
-1712 -1669 -1667 0
1695 1669 0
-1695 -1669 0
1715 1674 0
1715 1672 0
-1715 -1674 -1672 0
1698 1674 0
-1698 -1674 0
1718 1679 0
1718 1677 0
-1718 -1679 -1677 0
1701 1679 0
-1701 -1679 0
1721 1684 0
1721 1682 0
-1721 -1684 -1682 0
1704 1684 0
-1704 -1684 0
1724 1689 0
1724 1687 0
-1724 -1689 -1687 0
1707 1689 0
-1707 -1689 0
1710 1691 0
1710 1692 0
-1710 -1691 -1692 0
1713 1694 0
1713 1695 0
-1713 -1694 -1695 0
1716 1697 0
1716 1698 0
-1716 -1697 -1698 0
1719 1700 0
1719 1701 0
-1719 -1700 -1701 0
1722 1703 0
1722 1704 0
-1722 -1703 -1704 0
1725 1706 0
1725 1707 0
-1725 -1706 -1707 0
1727 1709 0
1727 1710 0
-1727 -1709 -1710 0
1735 1712 0
1735 1713 0
-1735 -1712 -1713 0
1729 1715 0
1729 1716 0
-1729 -1715 -1716 0
1740 1718 0
1740 1719 0
-1740 -1718 -1719 0
1731 1721 0
1731 1722 0
-1731 -1721 -1722 0
1745 1724 0
1745 1725 0
-1745 -1724 -1725 0
1750 1727 0
-1750 -1727 0
1753 1729 0
-1753 -1729 0
1752 1731 0
-1752 -1731 0
1768 1735 0
-1768 -1735 0
-1735 1774 0
1735 -1774 0
1785 1740 0
-1785 -1740 0
-1758 1784 0
-1758 1740 0
1758 -1784 -1740 0
1791 1745 0
-1791 -1745 0
-1762 1790 0
-1762 1745 0
1762 -1790 -1745 0
2268 1747 0
2268 1748 0
2268 1749 0
2268 1750 0
2268 1751 0
2268 1752 0
2268 1753 0
2268 1754 0
-2268 -1747 -1748 -1749 -1750 -1751 -1752 -1753 -1754 0
-1758 1979 0
1758 -1979 0
-1758 2003 0
1758 -2003 0
-1762 1860 0
1762 -1860 0
-1762 2028 0
1762 -2028 0
-1999 1770 0
-1999 1768 0
1999 -1770 -1768 0
-2029 1773 0
-2029 1768 0
2029 -1773 -1768 0
-2017 1770 0
-2017 1774 0
2017 -1770 -1774 0
-2023 1773 0
-2023 1774 0
2023 -1773 -1774 0
-2282 2267 0
-2282 2268 0
-2282 1779 0
-2282 1779 0
2282 -2267 -2268 -1779 -1779 0
-1973 1781 0
-1973 1785 0
1973 -1781 -1785 0
-2027 1784 0
-2027 1785 0
2027 -1784 -1785 0
-1968 1787 0
-1968 1791 0
1968 -1787 -1791 0
-2004 1790 0
-2004 1791 0
2004 -1790 -1791 0
2161 1979 0
2161 1860 0
2161 2017 0
2161 2024 0
2161 2001 0
-2161 -1979 -1860 -2017 -2024 -2001 0
2162 1979 0
2162 1860 0
2162 1999 0
2162 2030 0
2162 2001 0
-2162 -1979 -1860 -1999 -2030 -2001 0
2163 1979 0
2163 1860 0
2163 1999 0
2163 2018 0
2163 2001 0
-2163 -1979 -1860 -1999 -2018 -2001 0
2164 1979 0
2164 1860 0
2164 2029 0
2164 2024 0
2164 2001 0
-2164 -1979 -1860 -2029 -2024 -2001 0
2171 2003 0
2171 1860 0
2171 2023 0
2171 2018 0
2171 2031 0
-2171 -2003 -1860 -2023 -2018 -2031 0
2176 2003 0
2176 2028 0
2176 2017 0
2176 2000 0
2176 2031 0
-2176 -2003 -2028 -2017 -2000 -2031 0
2177 2003 0
2177 2028 0
2177 2023 0
2177 2030 0
2177 2031 0
-2177 -2003 -2028 -2023 -2030 -2031 0
-2036 1979 0
-2036 1860 0
-2036 2017 0
-2036 2024 0
-2036 2001 0
2036 -1979 -1860 -2017 -2024 -2001 0
-2041 1979 0
-2041 1860 0
-2041 1999 0
-2041 2030 0
-2041 2001 0
2041 -1979 -1860 -1999 -2030 -2001 0
-2046 1979 0
-2046 1860 0
-2046 1999 0
-2046 2018 0
-2046 2001 0
2046 -1979 -1860 -1999 -2018 -2001 0
-2051 1979 0
-2051 1860 0
-2051 2029 0
-2051 2024 0
-2051 2001 0
2051 -1979 -1860 -2029 -2024 -2001 0
-2056 2003 0
-2056 1860 0
-2056 2023 0
-2056 2018 0
-2056 2031 0
2056 -2003 -1860 -2023 -2018 -2031 0
-2061 2003 0
-2061 2028 0
-2061 2017 0
-2061 2000 0
-2061 2031 0
2061 -2003 -2028 -2017 -2000 -2031 0
-2066 2003 0
-2066 2028 0
-2066 2023 0
-2066 2030 0
-2066 2031 0
2066 -2003 -2028 -2023 -2030 -2031 0
2165 1979 0
2165 2004 0
2165 2017 0
2165 2030 0
2165 2001 0
-2165 -1979 -2004 -2017 -2030 -2001 0
2166 2003 0
2166 2004 0
2166 2017 0
2166 2018 0
2166 2001 0
-2166 -2003 -2004 -2017 -2018 -2001 0
2167 2003 0
2167 2004 0
2167 2023 0
2167 2024 0
2167 2001 0
-2167 -2003 -2004 -2023 -2024 -2001 0
2168 2003 0
2168 2004 0
2168 1999 0
2168 2000 0
2168 2001 0
-2168 -2003 -2004 -1999 -2000 -2001 0
2170 2003 0
2170 2004 0
2170 2029 0
2170 2030 0
2170 2031 0
-2170 -2003 -2004 -2029 -2030 -2031 0
2172 2027 0
2172 2028 0
2172 2017 0
2172 2030 0
2172 2031 0
-2172 -2027 -2028 -2017 -2030 -2031 0
2173 2027 0
2173 2028 0
2173 2017 0
2173 2018 0
2173 2031 0
-2173 -2027 -2028 -2017 -2018 -2031 0
2174 2027 0
2174 2028 0
2174 2023 0
2174 2024 0
2174 2031 0
-2174 -2027 -2028 -2023 -2024 -2031 0
2175 2027 0
2175 2028 0
2175 2029 0
2175 2030 0
2175 2031 0
-2175 -2027 -2028 -2029 -2030 -2031 0
2068 2003 0
2068 2004 0
2068 1999 0
2068 2024 0
2068 1977 0
-2068 -2003 -2004 -1999 -2024 -1977 0
2069 2027 0
2069 2028 0
2069 1999 0
2069 2024 0
2069 1977 0
-2069 -2027 -2028 -1999 -2024 -1977 0
2070 2027 0
2070 2004 0
2070 2017 0
2070 2024 0
2070 1977 0
-2070 -2027 -2004 -2017 -2024 -1977 0
2071 2027 0
2071 2004 0
2071 1999 0
2071 2030 0
2071 1977 0
-2071 -2027 -2004 -1999 -2030 -1977 0
2072 2027 0
2072 2004 0
2072 1999 0
2072 2018 0
2072 1977 0
-2072 -2027 -2004 -1999 -2018 -1977 0
2073 2027 0
2073 2004 0
2073 2029 0
2073 2024 0
2073 1977 0
-2073 -2027 -2004 -2029 -2024 -1977 0
2074 2027 0
2074 1968 0
2074 1999 0
2074 2024 0
2074 1977 0
-2074 -2027 -1968 -1999 -2024 -1977 0
2075 1973 0
2075 2004 0
2075 1999 0
2075 2024 0
2075 1977 0
-2075 -1973 -2004 -1999 -2024 -1977 0
-2092 1979 0
-2092 2004 0
-2092 2017 0
-2092 2030 0
-2092 2001 0
2092 -1979 -2004 -2017 -2030 -2001 0
-2097 2003 0
-2097 2004 0
-2097 2017 0
-2097 2018 0
-2097 2001 0
2097 -2003 -2004 -2017 -2018 -2001 0
-2102 2003 0
-2102 2004 0
-2102 2023 0
-2102 2024 0
-2102 2001 0
2102 -2003 -2004 -2023 -2024 -2001 0
-2107 2003 0
-2107 2004 0
-2107 1999 0
-2107 2000 0
-2107 2001 0
2107 -2003 -2004 -1999 -2000 -2001 0
-2112 2003 0
-2112 2004 0
-2112 2029 0
-2112 2030 0
-2112 2031 0
2112 -2003 -2004 -2029 -2030 -2031 0
-2120 2027 0
-2120 2028 0
-2120 2017 0
-2120 2030 0
-2120 2031 0
2120 -2027 -2028 -2017 -2030 -2031 0
-2125 2027 0
-2125 2028 0
-2125 2017 0
-2125 2018 0
-2125 2031 0
2125 -2027 -2028 -2017 -2018 -2031 0
-2130 2027 0
-2130 2028 0
-2130 2023 0
-2130 2024 0
-2130 2031 0
2130 -2027 -2028 -2023 -2024 -2031 0
-2135 2027 0
-2135 2028 0
-2135 2029 0
-2135 2030 0
-2135 2031 0
2135 -2027 -2028 -2029 -2030 -2031 0
2179 2036 0
2179 2034 0
-2179 -2036 -2034 0
2078 2036 0
-2078 -2036 0
2182 2041 0
2182 2039 0
-2182 -2041 -2039 0
2081 2041 0
-2081 -2041 0
2185 2046 0
2185 2044 0
-2185 -2046 -2044 0
2084 2046 0
-2084 -2046 0
2188 2051 0
2188 2049 0
-2188 -2051 -2049 0
2087 2051 0
-2087 -2051 0
2206 2056 0
2206 2054 0
-2206 -2056 -2054 0
2115 2056 0
-2115 -2056 0
2221 2061 0
2221 2059 0
-2221 -2061 -2059 0
2138 2061 0
-2138 -2061 0
2224 2066 0
2224 2064 0
-2224 -2066 -2064 0
2141 2066 0
-2141 -2066 0
-2262 2068 0
-2262 2069 0
-2262 2070 0
-2262 2071 0
-2262 2072 0
-2262 2073 0
-2262 2074 0
-2262 2075 0
2262 -2068 -2069 -2070 -2071 -2072 -2073 -2074 -2075 0
2180 2077 0
2180 2078 0
-2180 -2077 -2078 0
2183 2080 0
2183 2081 0
-2183 -2080 -2081 0
2186 2083 0
2186 2084 0
-2186 -2083 -2084 0
2189 2086 0
2189 2087 0
-2189 -2086 -2087 0
2233 2092 0
2233 2090 0
-2233 -2092 -2090 0
2192 2092 0
-2192 -2092 0
2236 2097 0
2236 2095 0
-2236 -2097 -2095 0
2195 2097 0
-2195 -2097 0
2239 2102 0
2239 2100 0
-2239 -2102 -2100 0
2198 2102 0
-2198 -2102 0
2242 2107 0
2242 2105 0
-2242 -2107 -2105 0
2201 2107 0
-2201 -2107 0
2245 2112 0
2245 2110 0
-2245 -2112 -2110 0
2204 2112 0
-2204 -2112 0
2207 2114 0
2207 2115 0
-2207 -2114 -2115 0
2248 2120 0
2248 2118 0
-2248 -2120 -2118 0
2210 2120 0
-2210 -2120 0
2251 2125 0
2251 2123 0
-2251 -2125 -2123 0
2213 2125 0
-2213 -2125 0
2254 2130 0
2254 2128 0
-2254 -2130 -2128 0
2216 2130 0
-2216 -2130 0
2257 2135 0
2257 2133 0
-2257 -2135 -2133 0
2219 2135 0
-2219 -2135 0
2222 2137 0
2222 2138 0
-2222 -2137 -2138 0
2225 2140 0
2225 2141 0
-2225 -2140 -2141 0
2227 2161 0
2227 2162 0
2227 2163 0
2227 2164 0
2227 2165 0
2227 2166 0
2227 2167 0
2227 2168 0
-2227 -2161 -2162 -2163 -2164 -2165 -2166 -2167 -2168 0
2230 2170 0
2230 2171 0
2230 2172 0
2230 2173 0
2230 2174 0
2230 2175 0
2230 2176 0
2230 2177 0
-2230 -2170 -2171 -2172 -2173 -2174 -2175 -2176 -2177 0
-2264 2161 0
-2264 2162 0
-2264 2163 0
-2264 2164 0
-2264 2165 0
-2264 2166 0
-2264 2167 0
-2264 2168 0
2264 -2161 -2162 -2163 -2164 -2165 -2166 -2167 -2168 0
-2265 2170 0
-2265 2171 0
-2265 2172 0
-2265 2173 0
-2265 2174 0
-2265 2175 0
-2265 2176 0
-2265 2177 0
2265 -2170 -2171 -2172 -2173 -2174 -2175 -2176 -2177 0
2178 2179 0
2178 2180 0
-2178 -2179 -2180 0
2181 2182 0
2181 2183 0
-2181 -2182 -2183 0
2184 2185 0
2184 2186 0
-2184 -2185 -2186 0
2187 2188 0
2187 2189 0
-2187 -2188 -2189 0
2234 2191 0
2234 2192 0
-2234 -2191 -2192 0
2237 2194 0
2237 2195 0
-2237 -2194 -2195 0
2240 2197 0
2240 2198 0
-2240 -2197 -2198 0
2243 2200 0
2243 2201 0
-2243 -2200 -2201 0
2246 2203 0
2246 2204 0
-2246 -2203 -2204 0
2205 2206 0
2205 2207 0
-2205 -2206 -2207 0
2249 2209 0
2249 2210 0
-2249 -2209 -2210 0
2252 2212 0
2252 2213 0
-2252 -2212 -2213 0
2255 2215 0
2255 2216 0
-2255 -2215 -2216 0
2258 2218 0
2258 2219 0
-2258 -2218 -2219 0
2220 2221 0
2220 2222 0
-2220 -2221 -2222 0
2223 2224 0
2223 2225 0
-2223 -2224 -2225 0
-2275 2227 0
-2275 2228 0
2275 -2227 -2228 0
-2280 2230 0
-2280 2231 0
2280 -2230 -2231 0
2232 2233 0
2232 2234 0
-2232 -2233 -2234 0
2235 2236 0
2235 2237 0
-2235 -2236 -2237 0
2238 2239 0
2238 2240 0
-2238 -2239 -2240 0
2241 2242 0
2241 2243 0
-2241 -2242 -2243 0
2244 2245 0
2244 2246 0
-2244 -2245 -2246 0
2247 2248 0
2247 2249 0
-2247 -2248 -2249 0
2250 2251 0
2250 2252 0
-2250 -2251 -2252 0
2253 2254 0
2253 2255 0
-2253 -2254 -2255 0
2256 2257 0
2256 2258 0
-2256 -2257 -2258 0
-2270 2264 0
-2270 2265 0
-2270 2262 0
2270 -2264 -2265 -2262 0
2313 2264 0
2313 2265 0
-2313 -2264 -2265 0
-2283 2267 0
-2283 2268 0
-2283 2269 0
-2283 2270 0
2283 -2267 -2268 -2269 -2270 0
2315 2275 0
2315 2273 0
-2315 -2275 -2273 0
2306 2275 0
-2306 -2275 0
2318 2280 0
2318 2278 0
-2318 -2280 -2278 0
2309 2280 0
-2309 -2280 0
-2281 -2282 0
-2281 -2283 0
2281 2282 2283 0
-2336 2285 0
-2336 2312 0
-2336 2313 0
2336 -2285 -2312 -2313 0
-2338 2289 0
-2338 2312 0
-2338 2313 0
2338 -2289 -2312 -2313 0
-2340 2293 0
-2340 2312 0
-2340 2313 0
2340 -2293 -2312 -2313 0
-2342 2297 0
-2342 2312 0
-2342 2313 0
2342 -2297 -2312 -2313 0
-2344 2301 0
-2344 2312 0
-2344 2313 0
2344 -2301 -2312 -2313 0
2316 2305 0
2316 2306 0
-2316 -2305 -2306 0
2319 2308 0
2319 2309 0
-2319 -2308 -2309 0
-2348 2311 0
-2348 2312 0
-2348 2313 0
2348 -2311 -2312 -2313 0
2369 2315 0
2369 2316 0
-2369 -2315 -2316 0
2374 2318 0
2374 2319 0
-2374 -2318 -2319 0
2380 2336 0
2380 2322 0
-2380 -2336 -2322 0
2383 2338 0
2383 2325 0
-2383 -2338 -2325 0
2386 2340 0
2386 2328 0
-2386 -2340 -2328 0
2389 2342 0
2389 2331 0
-2389 -2342 -2331 0
2392 2344 0
2392 2334 0
-2392 -2344 -2334 0
2352 2336 0
-2352 -2336 0
2355 2338 0
-2355 -2338 0
2358 2340 0
-2358 -2340 0
2361 2342 0
-2361 -2342 0
2364 2344 0
-2364 -2344 0
2377 2348 0
-2377 -2348 0
2401 2348 0
2401 2349 0
-2401 -2348 -2349 0
2379 2351 0
2379 2352 0
-2379 -2351 -2352 0
2382 2354 0
2382 2355 0
-2382 -2354 -2355 0
2385 2357 0
2385 2358 0
-2385 -2357 -2358 0
2388 2360 0
2388 2361 0
-2388 -2360 -2361 0
2391 2363 0
2391 2364 0
-2391 -2363 -2364 0
2418 2369 0
2418 2367 0
-2418 -2369 -2367 0
2395 2369 0
-2395 -2369 0
2421 2374 0
2421 2372 0
-2421 -2374 -2372 0
2398 2374 0
-2398 -2374 0
2400 2376 0
2400 2377 0
-2400 -2376 -2377 0
2403 2379 0
2403 2380 0
-2403 -2379 -2380 0
2407 2382 0
2407 2383 0
-2407 -2382 -2383 0
2410 2385 0
2410 2386 0
-2410 -2385 -2386 0
2412 2388 0
2412 2389 0
-2412 -2388 -2389 0
2416 2391 0
2416 2392 0
-2416 -2391 -2392 0
2419 2394 0
2419 2395 0
-2419 -2394 -2395 0
2422 2397 0
2422 2398 0
-2422 -2397 -2398 0
2427 2400 0
2427 2401 0
-2427 -2400 -2401 0
-2402 2403 0
-2402 2404 0
2402 -2403 -2404 0
-2405 2406 0
-2405 2407 0
2405 -2406 -2407 0
-2408 2409 0
-2408 2410 0
2408 -2409 -2410 0
-2411 2412 0
-2411 2413 0
2411 -2412 -2413 0
-2414 2415 0
-2414 2416 0
2414 -2415 -2416 0
2417 2418 0
2417 2419 0
-2417 -2418 -2419 0
2420 2421 0
2420 2422 0
-2420 -2421 -2422 0
2432 2427 0
2432 2425 0
-2432 -2427 -2425 0
2430 2427 0
-2430 -2427 0
2433 2429 0
2433 2430 0
-2433 -2429 -2430 0
2435 2432 0
2435 2433 0
-2435 -2432 -2433 0
-2434 2435 0
-2434 2436 0
2434 -2435 -2436 0
2178 0
-2256 0
2434 0